rcpsp/heur_output_bi_constraints/Log=2/heurj120.txt
encoding rcpsp/j120.sm/j12013_7.sm nv: 4796720 nc: 9844301 enctime: 87.13
encoding rcpsp/j120.sm/j12013_7.sm nv: 874696 nc: 1791197 enctime: 11.36
c File: j12013_7.smnaivebi2.wcnf
c timeout
c final solution cost: 113
c CPU time: 71.318505
s UNKNOWN

c File: j12013_7.smbi2.wcnf
c timeout
c final solution cost: 109
c CPU time: 61.387852
s UNKNOWN


rcpsp/heur_output_bi_constraints/Log=2/heurj120.txt
encoding rcpsp/j120.sm/j12013_8.sm nv: 5379717 nc: 11003302 enctime: 91.47
encoding rcpsp/j120.sm/j12013_8.sm nv: 911145 nc: 1859734 enctime: 11.64
c File: j12013_8.smnaivebi2.wcnf
c timeout
c final solution cost: 99
c CPU time: 71.940397
s UNKNOWN

c File: j12013_8.smbi2.wcnf
c timeout
c final solution cost: 94
c CPU time: 61.381707
s UNKNOWN


rcpsp/heur_output_bi_constraints/Log=2/heurj120.txt
encoding rcpsp/j120.sm/j12013_9.sm nv: 5127290 nc: 10439281 enctime: 83.83
encoding rcpsp/j120.sm/j12013_9.sm nv: 757160 nc: 1538128 enctime: 9.95
c File: j12013_9.smnaivebi2.wcnf
c timeout
c final solution cost: 117
c CPU time: 70.866643
s UNKNOWN

c File: j12013_9.smbi2.wcnf
c timeout
c final solution cost: 81
c CPU time: 61.204437
s UNKNOWN


rcpsp/heur_output_bi_constraints/Log=2/heurj120.txt
encoding rcpsp/j120.sm/j1201_3.sm nv: 647400 nc: 1580327 enctime: 25.69
encoding rcpsp/j120.sm/j1201_3.sm nv: 155025 nc: 374892 enctime: 2.77
c File: j1201_3.smnaivebi2.wcnf
c timeout
c final solution cost: 123
c CPU time: 65.496927
s UNKNOWN

c File: j1201_3.smbi2.wcnf
c timeout
c final solution cost: 122
c CPU time: 60.468329
s UNKNOWN


rcpsp/heur_output_bi_constraints/Log=2/heurj120.txt
encoding rcpsp/j120.sm/j12014_10.sm nv: 5935808 nc: 12070732 enctime: 97.29
encoding rcpsp/j120.sm/j12014_10.sm nv: 782944 nc: 1588412 enctime: 11.10
c File: j12014_10.smnaivebi2.wcnf
c timeout
c final solution cost: 73
c CPU time: 72.272377
s UNKNOWN

c File: j12014_10.smbi2.wcnf
c timeout
c final solution cost: 71
c CPU time: 61.150345
s UNKNOWN


rcpsp/heur_output_bi_constraints/Log=2/heurj120.txt
encoding rcpsp/j120.sm/j12014_1.sm nv: 7133508 nc: 14518906 enctime: 118.75
encoding rcpsp/j120.sm/j12014_1.sm nv: 946485 nc: 1921921 enctime: 12.30
c File: j12014_1.smnaivebi2.wcnf
c timeout
c final solution cost: 81
c CPU time: 75.056215
s UNKNOWN

c File: j12014_1.smbi2.wcnf
c timeout
c final solution cost: 77
c CPU time: 61.344085
s UNKNOWN


rcpsp/heur_output_bi_constraints/Log=2/heurj120.txt
encoding rcpsp/j120.sm/j12014_2.sm nv: 6866283 nc: 14010213 enctime: 117.46
encoding rcpsp/j120.sm/j12014_2.sm nv: 958086 nc: 1950396 enctime: 12.81
c File: j12014_2.smnaivebi2.wcnf
c timeout
c final solution cost: 499
c CPU time: 74.773212
s UNKNOWN

c File: j12014_2.smbi2.wcnf
c timeout
c final solution cost: 85
c CPU time: 61.445557
s UNKNOWN


rcpsp/heur_output_bi_constraints/Log=2/heurj120.txt
encoding rcpsp/j120.sm/j12014_3.sm nv: 5770692 nc: 11717466 enctime: 93.85
encoding rcpsp/j120.sm/j12014_3.sm nv: 863766 nc: 1750356 enctime: 11.29
c File: j12014_3.smnaivebi2.wcnf
c timeout
c final solution cost: 72
c CPU time: 72.238387
s UNKNOWN

c File: j12014_3.smbi2.wcnf
c timeout
c final solution cost: 72
c CPU time: 61.335214
s UNKNOWN


rcpsp/heur_output_bi_constraints/Log=2/heurj120.txt
encoding rcpsp/j120.sm/j12014_4.sm nv: 5547202 nc: 11297559 enctime: 92.94
encoding rcpsp/j120.sm/j12014_4.sm nv: 893048 nc: 1815269 enctime: 12.30
c File: j12014_4.smnaivebi2.wcnf
c timeout
c final solution cost: 83
c CPU time: 71.682799
s UNKNOWN

c File: j12014_4.smbi2.wcnf
c timeout
c final solution cost: 83
c CPU time: 61.396234
s UNKNOWN


rcpsp/heur_output_bi_constraints/Log=2/heurj120.txt
encoding rcpsp/j120.sm/j12014_5.sm nv: 4514376 nc: 9234361 enctime: 79.38
encoding rcpsp/j120.sm/j12014_5.sm nv: 857160 nc: 1749945 enctime: 11.12
c File: j12014_5.smnaivebi2.wcnf
c timeout
c final solution cost: 96
c CPU time: 70.729343
s UNKNOWN

c File: j12014_5.smbi2.wcnf
c timeout
c final solution cost: 95
c CPU time: 61.305377
s UNKNOWN


rcpsp/heur_output_bi_constraints/Log=2/heurj120.txt
encoding rcpsp/j120.sm/j12014_6.sm nv: 5811047 nc: 11822105 enctime: 97.69
encoding rcpsp/j120.sm/j12014_6.sm nv: 836506 nc: 1698056 enctime: 10.99
c File: j12014_6.smnaivebi2.wcnf
c timeout
c final solution cost: 83
c CPU time: 72.517238
s UNKNOWN

c File: j12014_6.smbi2.wcnf
c timeout
c final solution cost: 82
c CPU time: 61.284030
s UNKNOWN


rcpsp/heur_output_bi_constraints/Log=2/heurj120.txt
encoding rcpsp/j120.sm/j12014_7.sm nv: 6483386 nc: 13196001 enctime: 110.06
encoding rcpsp/j120.sm/j12014_7.sm nv: 982904 nc: 1996575 enctime: 12.97
c File: j12014_7.smnaivebi2.wcnf
c timeout
c final solution cost: 81
c CPU time: 74.067822
s UNKNOWN

c File: j12014_7.smbi2.wcnf
c timeout
c final solution cost: 79
c CPU time: 61.489994
s UNKNOWN


rcpsp/heur_output_bi_constraints/Log=2/heurj120.txt
encoding rcpsp/j120.sm/j12014_8.sm nv: 5247648 nc: 10746266 enctime: 91.00
encoding rcpsp/j120.sm/j12014_8.sm nv: 943656 nc: 1928468 enctime: 12.06
c File: j12014_8.smnaivebi2.wcnf
c timeout
c final solution cost: 125
c CPU time: 72.459524
s UNKNOWN

c File: j12014_8.smbi2.wcnf
c timeout
c final solution cost: 104
c CPU time: 61.476760
s UNKNOWN


rcpsp/heur_output_bi_constraints/Log=2/heurj120.txt
encoding rcpsp/j120.sm/j12014_9.sm nv: 5383985 nc: 10980361 enctime: 92.72
encoding rcpsp/j120.sm/j12014_9.sm nv: 824500 nc: 1677795 enctime: 8.51
c File: j12014_9.smnaivebi2.wcnf
c timeout
c final solution cost: 87
c CPU time: 71.788170
s UNKNOWN

c File: j12014_9.smbi2.wcnf
c timeout
c final solution cost: 87
c CPU time: 61.277482
s UNKNOWN


rcpsp/heur_output_bi_constraints/Log=2/heurj120.txt
encoding rcpsp/j120.sm/j1201_4.sm nv: 580450 nc: 1395882 enctime: 22.16
encoding rcpsp/j120.sm/j1201_4.sm nv: 116850 nc: 277874 enctime: 2.18
c File: j1201_4.smnaivebi2.wcnf
c timeout
c final solution cost: 88
c CPU time: 64.627708
s UNKNOWN

c File: j1201_4.smbi2.wcnf
c timeout
c final solution cost: 88
c CPU time: 60.310912
s UNKNOWN


rcpsp/heur_output_bi_constraints/Log=2/heurj120.txt
encoding rcpsp/j120.sm/j12015_10.sm nv: 7647274 nc: 15527259 enctime: 126.97
encoding rcpsp/j120.sm/j12015_10.sm nv: 992312 nc: 2010640 enctime: 10.32
c File: j12015_10.smnaivebi2.wcnf
c timeout
c final solution cost: 91
c CPU time: 75.546669
s UNKNOWN

c File: j12015_10.smbi2.wcnf
c timeout
c final solution cost: 71
c CPU time: 61.440562
s UNKNOWN


rcpsp/heur_output_bi_constraints/Log=2/heurj120.txt
encoding rcpsp/j120.sm/j12015_1.sm nv: 7749709 nc: 15663123 enctime: 122.12
encoding rcpsp/j120.sm/j12015_1.sm nv: 859752 nc: 1733766 enctime: 12.97
c File: j12015_1.smnaivebi2.wcnf
c timeout
c final solution cost: 324
c CPU time: 74.633267
s UNKNOWN

c File: j12015_1.smbi2.wcnf
c optimal
c final solution cost: 63
c CPU time: 6.626873
s OPTIMUM FOUND


rcpsp/heur_output_bi_constraints/Log=2/heurj120.txt
encoding rcpsp/j120.sm/j12015_2.sm nv: 8718840 nc: 17631007 enctime: 138.59
encoding rcpsp/j120.sm/j12015_2.sm nv: 909792 nc: 1835545 enctime: 9.71
c File: j12015_2.smnaivebi2.wcnf
c optimal
c final solution cost: 70
c CPU time: 27.093107
s OPTIMUM FOUND

c File: j12015_2.smbi2.wcnf
c optimal
c final solution cost: 70
c CPU time: 2.323816
s OPTIMUM FOUND


rcpsp/heur_output_bi_constraints/Log=2/heurj120.txt
encoding rcpsp/j120.sm/j12015_3.sm nv: 6201000 nc: 12597097 enctime: 100.47
encoding rcpsp/j120.sm/j12015_3.sm nv: 896760 nc: 1817925 enctime: 11.24
c File: j12015_3.smnaivebi2.wcnf
c timeout
c final solution cost: 72
c CPU time: 72.832993
s UNKNOWN

c File: j12015_3.smbi2.wcnf
c timeout
c final solution cost: 71
c CPU time: 61.281884
s UNKNOWN


rcpsp/heur_output_bi_constraints/Log=2/heurj120.txt
encoding rcpsp/j120.sm/j12015_4.sm nv: 8164860 nc: 16533251 enctime: 132.84
encoding rcpsp/j120.sm/j12015_4.sm nv: 939840 nc: 1898711 enctime: 13.06
c File: j12015_4.smnaivebi2.wcnf
c optimal
c final solution cost: 71
c CPU time: 24.892587
s OPTIMUM FOUND

c File: j12015_4.smbi2.wcnf
c optimal
c final solution cost: 71
c CPU time: 4.618764
s OPTIMUM FOUND


rcpsp/heur_output_bi_constraints/Log=2/heurj120.txt
encoding rcpsp/j120.sm/j12015_5.sm nv: 8275925 nc: 16715789 enctime: 128.57
encoding rcpsp/j120.sm/j12015_5.sm nv: 871815 nc: 1756967 enctime: 13.20
c File: j12015_5.smnaivebi2.wcnf
c timeout
c final solution cost: 57
c CPU time: 75.231756
s UNKNOWN

c File: j12015_5.smbi2.wcnf
c timeout
c final solution cost: 56
c CPU time: 61.309002
s UNKNOWN


rcpsp/heur_output_bi_constraints/Log=2/heurj120.txt
encoding rcpsp/j120.sm/j12015_6.sm nv: 7124378 nc: 14451985 enctime: 116.08
encoding rcpsp/j120.sm/j12015_6.sm nv: 1069186 nc: 2164853 enctime: 13.86
c File: j12015_6.smnaivebi2.wcnf
c optimal
c final solution cost: 86
c CPU time: 21.175323
s OPTIMUM FOUND

c File: j12015_6.smbi2.wcnf
c optimal
c final solution cost: 86
c CPU time: 3.130234
s OPTIMUM FOUND


rcpsp/heur_output_bi_constraints/Log=2/heurj120.txt
encoding rcpsp/j120.sm/j12015_7.sm nv: 6826314 nc: 13766177 enctime: 103.64
encoding rcpsp/j120.sm/j12015_7.sm nv: 966867 nc: 1946683 enctime: 12.04
c File: j12015_7.smnaivebi2.wcnf
c optimal
c final solution cost: 63
c CPU time: 40.194729
s OPTIMUM FOUND

c File: j12015_7.smbi2.wcnf
c optimal
c final solution cost: 63
c CPU time: 7.699420
s OPTIMUM FOUND


rcpsp/heur_output_bi_constraints/Log=2/heurj120.txt
encoding rcpsp/j120.sm/j12015_8.sm nv: 7356600 nc: 14903482 enctime: 117.34
encoding rcpsp/j120.sm/j12015_8.sm nv: 1152900 nc: 2331667 enctime: 11.87
c File: j12015_8.smnaivebi2.wcnf
c optimal
c final solution cost: 77
c CPU time: 24.333879
s OPTIMUM FOUND

c File: j12015_8.smbi2.wcnf
c optimal
c final solution cost: 77
c CPU time: 2.966192
s OPTIMUM FOUND


rcpsp/heur_output_bi_constraints/Log=2/heurj120.txt
encoding rcpsp/j120.sm/j12015_9.sm nv: 7539956 nc: 15307102 enctime: 122.48
encoding rcpsp/j120.sm/j12015_9.sm nv: 978796 nc: 1982872 enctime: 10.50
c File: j12015_9.smnaivebi2.wcnf
c timeout
c final solution cost: 68
c CPU time: 74.973077
s UNKNOWN

c File: j12015_9.smbi2.wcnf
c timeout
c final solution cost: 66
c CPU time: 61.418901
s UNKNOWN


rcpsp/heur_output_bi_constraints/Log=2/heurj120.txt
encoding rcpsp/j120.sm/j1201_5.sm nv: 641246 nc: 1557559 enctime: 24.79
encoding rcpsp/j120.sm/j1201_5.sm nv: 131588 nc: 316111 enctime: 2.32
c File: j1201_5.smnaivebi2.wcnf
c timeout
c final solution cost: 88
c CPU time: 65.564861
s UNKNOWN

c File: j1201_5.smbi2.wcnf
c timeout
c final solution cost: 88
c CPU time: 60.359944
s UNKNOWN


rcpsp/heur_output_bi_constraints/Log=2/heurj120.txt
encoding rcpsp/j120.sm/j12016_10.sm nv: 4460319 nc: 9223338 enctime: 81.01
encoding rcpsp/j120.sm/j12016_10.sm nv: 1716489 nc: 3546478 enctime: 23.67
c File: j12016_10.smnaivebi2.wcnf
c timeout
c final solution cost: 254
c CPU time: 71.200066
s UNKNOWN

c File: j12016_10.smbi2.wcnf
c timeout
c CPU time: 62.784413
s UNKNOWN


rcpsp/heur_output_bi_constraints/Log=2/heurj120.txt
encoding rcpsp/j120.sm/j12016_1.sm nv: 4126566 nc: 8499107 enctime: 72.91
encoding rcpsp/j120.sm/j12016_1.sm nv: 1568988 nc: 3228764 enctime: 20.82
c File: j12016_1.smnaivebi2.wcnf
c timeout
c final solution cost: 226
c CPU time: 70.107488
s UNKNOWN

c File: j12016_1.smbi2.wcnf
c timeout
c final solution cost: 218
c CPU time: 62.864502
s UNKNOWN


rcpsp/heur_output_bi_constraints/Log=2/heurj120.txt
encoding rcpsp/j120.sm/j12016_2.sm nv: 4085928 nc: 8469091 enctime: 76.03
encoding rcpsp/j120.sm/j12016_2.sm nv: 1733424 nc: 3590119 enctime: 23.49
c File: j12016_2.smnaivebi2.wcnf
c timeout
c final solution cost: 325
c CPU time: 70.743366
s UNKNOWN

c File: j12016_2.smbi2.wcnf
c timeout
c final solution cost: 245
c CPU time: 63.366807
s UNKNOWN


rcpsp/heur_output_bi_constraints/Log=2/heurj120.txt
encoding rcpsp/j120.sm/j12016_3.sm nv: 4258980 nc: 8841977 enctime: 80.48
encoding rcpsp/j120.sm/j12016_3.sm nv: 1764180 nc: 3659597 enctime: 24.90
c File: j12016_3.smnaivebi2.wcnf
c timeout
c final solution cost: 314
c CPU time: 71.467761
s UNKNOWN

c File: j12016_3.smbi2.wcnf
c timeout
c final solution cost: 261
c CPU time: 63.488597
s UNKNOWN


rcpsp/heur_output_bi_constraints/Log=2/heurj120.txt
encoding rcpsp/j120.sm/j12016_4.sm nv: 4265730 nc: 8796604 enctime: 76.33
encoding rcpsp/j120.sm/j12016_4.sm nv: 1562820 nc: 3219874 enctime: 20.99
c File: j12016_4.smnaivebi2.wcnf
c timeout
c final solution cost: 276
c CPU time: 71.013828
s UNKNOWN

c File: j12016_4.smbi2.wcnf
c timeout
c final solution cost: 215
c CPU time: 62.950194
s UNKNOWN


rcpsp/heur_output_bi_constraints/Log=2/heurj120.txt
encoding rcpsp/j120.sm/j12016_5.sm nv: 4169004 nc: 8587547 enctime: 74.18
encoding rcpsp/j120.sm/j12016_5.sm nv: 1581788 nc: 3255555 enctime: 21.01
c File: j12016_5.smnaivebi2.wcnf
c timeout
c final solution cost: 500
c CPU time: 70.281599
s UNKNOWN

c File: j12016_5.smbi2.wcnf
c timeout
c final solution cost: 215
c CPU time: 62.855717
s UNKNOWN


rcpsp/heur_output_bi_constraints/Log=2/heurj120.txt
encoding rcpsp/j120.sm/j12016_6.sm nv: 4359180 nc: 8994780 enctime: 77.76
encoding rcpsp/j120.sm/j12016_6.sm nv: 1771920 nc: 3653418 enctime: 23.59
c File: j12016_6.smnaivebi2.wcnf
c timeout
c final solution cost: 254
c CPU time: 71.531447
s UNKNOWN

c File: j12016_6.smbi2.wcnf
c timeout
c final solution cost: 224
c CPU time: 63.244585
s UNKNOWN


rcpsp/heur_output_bi_constraints/Log=2/heurj120.txt
encoding rcpsp/j120.sm/j12016_7.sm nv: 4727744 nc: 9745616 enctime: 84.04
encoding rcpsp/j120.sm/j12016_7.sm nv: 1667008 nc: 3433296 enctime: 22.63
c File: j12016_7.smnaivebi2.wcnf
c timeout
c final solution cost: 628
c CPU time: 71.699407
s UNKNOWN

c File: j12016_7.smbi2.wcnf
c timeout
c final solution cost: 205
c CPU time: 62.891916
s UNKNOWN


rcpsp/heur_output_bi_constraints/Log=2/heurj120.txt
encoding rcpsp/j120.sm/j12016_8.sm nv: 3964479 nc: 8161526 enctime: 69.60
encoding rcpsp/j120.sm/j12016_8.sm nv: 1496857 nc: 3078926 enctime: 19.58
c File: j12016_8.smnaivebi2.wcnf
c timeout
c final solution cost: 506
c CPU time: 69.772770
s UNKNOWN

c File: j12016_8.smbi2.wcnf
c timeout
c final solution cost: 217
c CPU time: 62.656717
s UNKNOWN


rcpsp/heur_output_bi_constraints/Log=2/heurj120.txt
encoding rcpsp/j120.sm/j12016_9.sm nv: 4210080 nc: 8692346 enctime: 76.03
encoding rcpsp/j120.sm/j12016_9.sm nv: 1616370 nc: 3334358 enctime: 22.89
c File: j12016_9.smnaivebi2.wcnf
c timeout
c final solution cost: 506
c CPU time: 71.015596
s UNKNOWN

c File: j12016_9.smbi2.wcnf
c timeout
c final solution cost: 221
c CPU time: 63.099005
s UNKNOWN


rcpsp/heur_output_bi_constraints/Log=2/heurj120.txt
encoding rcpsp/j120.sm/j1201_6.sm nv: 581740 nc: 1377970 enctime: 20.71
encoding rcpsp/j120.sm/j1201_6.sm nv: 108460 nc: 253810 enctime: 1.97
c File: j1201_6.smnaivebi2.wcnf
c timeout
c final solution cost: 201
c CPU time: 64.297664
s UNKNOWN

c File: j1201_6.smbi2.wcnf
c timeout
c final solution cost: 65
c CPU time: 60.263132
s UNKNOWN


rcpsp/heur_output_bi_constraints/Log=2/heurj120.txt
encoding rcpsp/j120.sm/j12017_10.sm nv: 7118616 nc: 14505698 enctime: 114.95
encoding rcpsp/j120.sm/j12017_10.sm nv: 1609072 nc: 3275079 enctime: 19.24
c File: j12017_10.smnaivebi2.wcnf
c timeout
c final solution cost: 646
c CPU time: 74.646677
s UNKNOWN

c File: j12017_10.smbi2.wcnf
c timeout
c CPU time: 62.163696
s UNKNOWN


rcpsp/heur_output_bi_constraints/Log=2/heurj120.txt
encoding rcpsp/j120.sm/j12017_1.sm nv: 6915897 nc: 14114719 enctime: 114.62
encoding rcpsp/j120.sm/j12017_1.sm nv: 1673044 nc: 3410718 enctime: 21.30
c File: j12017_1.smnaivebi2.wcnf
c timeout
c final solution cost: 655
c CPU time: 74.700635
s UNKNOWN

c File: j12017_1.smbi2.wcnf
c timeout
c final solution cost: 148
c CPU time: 62.668353
s UNKNOWN


rcpsp/heur_output_bi_constraints/Log=2/heurj120.txt
encoding rcpsp/j120.sm/j12017_2.sm nv: 6672640 nc: 13549526 enctime: 105.37
encoding rcpsp/j120.sm/j12017_2.sm nv: 1532622 nc: 3108772 enctime: 18.25
c File: j12017_2.smnaivebi2.wcnf
c timeout
c final solution cost: 156
c CPU time: 73.286809
s UNKNOWN

c File: j12017_2.smbi2.wcnf
c timeout
c final solution cost: 128
c CPU time: 62.433547
s UNKNOWN


